c User generated cnf file
p cnf 9 33
-2 2 3 0 
-4 6 1 0 
-1 6 3 0 
-8 8 2 0 
2 -6 5 0 
8 2 -2 0 
9 9 -7 0 
4 -9 1 0 
7 1 -4 0 
1 1 -1 0 
8 -4 2 0 
-3 1 2 0 
6 9 -4 0 
-3 4 2 0 
-3 6 8 0 
7 4 -1 0 
9 6 -3 0 
-7 9 6 0 
5 7 -5 0 
1 1 -6 0 
-2 1 9 0 
5 -3 8 0 
1 8 -9 0 
9 1 -3 0 
7 -2 4 0 
9 7 -9 0 
7 -6 2 0 
7 -7 1 0 
5 -3 6 0 
-4 9 1 0 
4 3 -8 0 
1 2 -6 0 
-3 7 1 0 
